c Random CNF formula
p cnf 10 40
-10 -2 -4 -9 -8 5 0
-9 -1 -7 2 -3 6 0
-10 -9 -3 -4 6 -8 0
4 7 9 10 -5 6 0
7 8 6 9 -4 -1 0
-8 1 -10 -2 -9 -4 0
-8 5 -6 2 -7 4 0
2 8 1 -9 -7 -3 0
-3 7 -6 -1 8 4 0
4 -8 5 -3 2 -9 0
-8 1 -6 -9 2 -4 0
-4 1 -2 9 -7 -8 0
6 -4 10 2 -1 -8 0
-8 -4 -6 9 5 1 0
-2 7 -4 -6 3 -1 0
-3 -10 -5 -4 -9 1 0
-3 -10 2 6 5 -9 0
-7 -8 4 -3 1 9 0
-8 5 4 -1 -3 -9 0
-10 4 -7 9 6 5 0
5 -6 7 -8 3 -1 0
-7 6 2 8 4 10 0
8 4 2 9 -6 -3 0
8 -9 -10 6 -2 7 0
3 6 5 -7 -4 -1 0
-2 -6 7 -3 8 1 0
-4 3 -2 -6 -7 -9 0
8 10 1 4 7 -3 0
10 6 -5 -4 -3 -1 0
2 6 8 -4 9 5 0
-10 7 3 4 -8 -9 0
-1 3 7 9 8 -6 0
8 5 4 9 -6 -10 0
-4 2 -5 10 6 -3 0
1 5 6 8 -3 -2 0
-9 4 7 2 -6 -10 0
10 -6 -5 8 3 -2 0
8 -4 -9 -10 -1 5 0
-6 -4 5 -8 3 -10 0
10 -5 2 6 9 1 0
